# LAMMPS input script generated by GROMACS conversion tool
# --------------------------------------------------------

# --- Initialization ---
units           real
atom_style      full
boundary        p p p

# --- Force Field Definition ---
# These parameters are determined from your GROMACS topology file.

pair_style      lj/charmm/coul/long 10.0 12.0
pair_modify     mix arithmetic
kspace_style    pppm 1.0e-4
bond_style      harmonic
{angle_style_line}
{dihedral_style_line}
{special_bonds_line}

# --- System Definition ---
read_data       {data_filename}

# --- Settings ---
thermo          1000
thermo_style    custom step temp pe etotal press lx ly lz vol
timestep        2.0          # Timestep in femtoseconds

# --- Optional Fixes (applied globally) ---
{shake_command}
{cm_removal_command}

# --- Simulation Protocol ---
# The following script is generated based on the --protocol option.
{simulation_script}

print "--- All simulation stages complete ---"